Route #1: 4 68 75 
Route #2: 26 66 65 10 39 9 50 16 63 73 30 
Route #3: 51 40 32 23 56 41 43 74 57 54 53 7 
Route #4: 2 62 64 69 71 13 19 14 11 31 12 
Route #5: 38 8 34 27 45 48 21 28 22 42 6 
Route #6: 29 5 37 36 47 33 3 44 72 58 59 35 67 
Route #7: 17 25 55 18 24 49 1 61 60 70 20 15 52 46 
cost 1110.61
